
n_res = 4;
rcap = [51, 37, 156, 105];
rtype = [1, 1, 2, 2];
n_tasks = 50;
modes =  [{1, 2, 3}, {4, 5, 6}, {7, 8, 9}, {10, 11, 12}, {13, 14, 15}, {16, 17, 18}, {19, 20, 21}, {22, 23, 24}, {25, 26, 27}, {28, 29, 30}, {31, 32, 33}, {34, 35, 36}, {37, 38, 39}, {40, 41, 42}, {43, 44, 45}, {46, 47, 48}, {49, 50, 51}, {52, 53, 54}, {55, 56, 57}, {58, 59, 60}, {61, 62, 63}, {64, 65, 66}, {67, 68, 69}, {70, 71, 72}, {73, 74, 75}, {76, 77, 78}, {79, 80, 81}, {82, 83, 84}, {85, 86, 87}, {88, 89, 90}, {91, 92, 93}, {94, 95, 96}, {97, 98, 99}, {100, 101, 102}, {103, 104, 105}, {106, 107, 108}, {109, 110, 111}, {112, 113, 114}, {115, 116, 117}, {118, 119, 120}, {121, 122, 123}, {124, 125, 126}, {127, 128, 129}, {130, 131, 132}, {133, 134, 135}, {136, 137, 138}, {139, 140, 141}, {142, 143, 144}, {145, 146, 147}, {148, 149, 150}];
succ =  [{32, 26, 25, 22, 21, 17, 15, 13, 12}, {32, 28, 26, 25, 23, 21, 20, 14, 13}, {27, 25, 21, 15, 14, 12, 10}, {43, 32, 23, 20, 15, 13, 9}, {43, 32, 25, 17, 15, 12}, {43, 29, 25, 24, 23, 21, 20, 17, 15}, {43, 32, 25, 23, 21, 15, 13}, {43, 32, 25, 21, 20, 13}, {42, 41, 31, 29, 28, 27, 24, 21}, {43, 42, 41, 33, 31, 30, 28, 23}, {33, 30, 29, 23, 20}, {29, 24, 23, 20}, {50, 42, 41, 40, 31, 29, 27, 24}, {50, 43, 42, 41, 40, 39, 38, 35, 34, 31}, {50, 42, 41, 39, 38, 33, 31, 28}, {49, 41, 39, 38, 35, 34, 33, 30, 29}, {50, 38, 34, 33, 30, 27}, {48, 43, 36, 34, 30, 25}, {49, 41, 34, 30, 23}, {50, 42, 41, 39, 38, 35, 34, 31}, {50, 49, 38, 36, 35, 34, 30}, {49, 23}, {50, 45, 40, 39, 38, 36, 35}, {49, 46, 39, 38, 34, 33}, {50, 49, 45, 41, 40, 39, 38, 37}, {49, 48, 45, 43, 41, 38, 36}, {49, 46, 45, 39, 37, 35}, {48, 47, 40, 37, 34}, {48, 47, 46, 45, 36}, {47, 45, 40, 37}, {49, 46, 45, 36}, {48, 46, 41, 39}, {48, 45, 36}, {45, 44}, {48, 47}, {37}, {44}, {44}, {47}, {46}, {44}, {46}, {44}, {}, {}, {}, {}, {}, {}, {}];
n_opt = 150;
dur = [2, 3, 7, 1, 4, 6, 2, 4, 7, 1, 2, 2, 1, 2, 7, 4, 9, 10, 3, 7, 9, 3, 4, 10, 1, 8, 10, 4, 6, 7, 2, 3, 5, 1, 4, 5, 1, 1, 8, 2, 5, 6, 8, 9, 10, 2, 9, 10, 3, 7, 10, 5, 7, 9, 2, 5, 8, 2, 4, 10, 5, 9, 10, 1, 4, 9, 2, 3, 10, 2, 4, 5, 1, 2, 9, 1, 2, 10, 4, 8, 8, 1, 4, 10, 2, 4, 10, 2, 2, 5, 2, 5, 7, 2, 3, 5, 1, 2, 9, 5, 7, 9, 1, 3, 6, 2, 4, 9, 2, 7, 8, 2, 2, 3, 6, 9, 9, 3, 7, 9, 3, 7, 8, 2, 8, 10, 1, 1, 1, 3, 5, 9, 3, 5, 6, 1, 3, 5, 3, 4, 5, 3, 5, 6, 5, 8, 9, 4, 9, 10];
rreq = [|1, 0, 1, 0, 0, 0, 8, 8, 0, 0, 5, 0, 6, 4, 0, 8, 0, 7, 0, 4, 0, 10, 9, 0, 6, 5, 0, 0, 3, 0, 9, 0, 7, 0, 4, 3, 0, 2, 2, 1, 0, 1, 0, 8, 6, 8, 7, 7, 0, 4, 2, 2, 2, 2, 4, 2, 2, 4, 4, 2, 4, 0, 0, 0, 0, 5, 10, 0, 6, 6, 0, 5, 0, 7, 7, 0, 6, 0, 0, 0, 0, 7, 0, 5, 7, 6, 3, 3, 0, 0, 0, 7, 5, 0, 5, 0, 4, 3, 0, 4, 4, 0, 10, 7, 0, 7, 6, 0, 6, 4, 0, 0, 7, 0, 6, 2, 0, 0, 7, 0, 0, 5, 0, 0, 0, 2, 3, 3, 0, 0, 0, 3, 0, 2, 2, 0, 2, 2, 8, 6, 0, 0, 0, 0, 2, 2, 0, 7, 0, 0
 |0, 2, 0, 6, 5, 5, 0, 0, 9, 6, 0, 2, 0, 0, 5, 0, 3, 0, 10, 0, 3, 0, 0, 2, 0, 0, 2, 5, 0, 2, 0, 2, 0, 7, 0, 0, 8, 0, 0, 0, 9, 0, 5, 0, 0, 0, 0, 0, 4, 0, 0, 0, 0, 0, 0, 0, 0, 0, 0, 0, 0, 1, 1, 9, 6, 0, 0, 7, 0, 0, 1, 0, 6, 0, 0, 7, 0, 5, 9, 9, 9, 0, 3, 0, 0, 0, 0, 0, 4, 3, 7, 0, 0, 7, 0, 1, 0, 0, 3, 0, 0, 3, 0, 0, 6, 0, 0, 4, 0, 0, 6, 10, 0, 7, 0, 0, 2, 10, 0, 8, 3, 0, 1, 9, 9, 0, 0, 0, 2, 3, 3, 0, 6, 0, 0, 6, 0, 0, 0, 0, 7, 7, 5, 5, 0, 0, 5, 0, 1, 1
 |0, 2, 2, 0, 3, 2, 5, 4, 0, 0, 4, 3, 0, 8, 0, 3, 3, 1, 1, 1, 0, 7, 6, 0, 9, 9, 9, 9, 8, 0, 0, 0, 0, 8, 0, 6, 4, 3, 0, 4, 3, 2, 8, 7, 6, 0, 2, 0, 9, 7, 3, 7, 5, 4, 8, 0, 6, 7, 0, 0, 0, 9, 0, 0, 0, 0, 0, 0, 0, 0, 3, 0, 0, 0, 7, 0, 4, 0, 0, 4, 0, 0, 9, 0, 0, 3, 2, 9, 9, 9, 0, 8, 5, 0, 0, 0, 8, 0, 0, 0, 0, 5, 3, 1, 1, 0, 3, 0, 9, 0, 8, 10, 9, 0, 6, 5, 0, 0, 7, 6, 0, 0, 4, 9, 8, 5, 0, 8, 6, 3, 2, 3, 0, 0, 0, 8, 4, 2, 0, 0, 0, 0, 8, 7, 6, 3, 3, 4, 0, 0
 |5, 0, 0, 6, 0, 0, 0, 0, 2, 5, 0, 0, 2, 0, 2, 0, 0, 0, 0, 0, 2, 0, 0, 4, 0, 0, 0, 0, 0, 3, 4, 3, 1, 0, 3, 0, 0, 0, 5, 0, 0, 0, 0, 0, 0, 4, 0, 2, 0, 0, 0, 0, 0, 0, 0, 6, 0, 0, 2, 1, 9, 0, 9, 3, 3, 1, 8, 4, 3, 5, 0, 4, 9, 7, 0, 4, 0, 3, 8, 0, 7, 7, 0, 2, 8, 0, 0, 0, 0, 0, 5, 0, 0, 6, 5, 5, 0, 5, 4, 8, 7, 0, 0, 0, 0, 9, 0, 6, 0, 6, 0, 0, 0, 4, 0, 0, 5, 8, 0, 0, 6, 6, 0, 0, 0, 0, 6, 0, 0, 0, 0, 0, 2, 2, 1, 0, 0, 0, 6, 3, 2, 5, 0, 0, 0, 0, 0, 0, 3, 2|];